NAME: Graph
TYPE: TSP
DIMENSION: 20
EDGE_WEIGHT_TYPE: EUC_2D
NODE_COORD_SECTION
1 4 56
2 9 44
3 9 68
4 10 71
5 18 94
6 23 35
7 24 24
8 27 57
9 33 62
10 39 73
11 41 91
12 48 52
13 54 7
14 55 78
15 59 29
16 67 73
17 82 75
18 86 57
19 93 45
20 97 40
EOF
